c WARNING: for repeatability, setting FPU to use double precision
d VARIABLES            201474       
d CONSTRAINTS          921954       
c ============================[ Problem Statistics ]=============================
c |                                                                             |
c |  Number of variables:        201474                                         |
c |  Number of clauses:          921954                                         |
c |  Parse time:                   0.14 s                                       |
c |                                                                             |
c ============================[ Search Statistics ]==============================
c | Conflicts |          ORIGINAL         |          LEARNT          | Progress |
c |           |    Vars  Clauses Literals |    Limit  Clauses Lit/Cl |          |
c ===============================================================================
c |       100 |  177781   854866  2065126 |   313450       99     39 | 11.760 % |
c |       250 |  177781   854866  2065126 |   344795      249     45 | 11.760 % |
c |       475 |  177781   854866  2065126 |   379275      474     49 | 11.760 % |
c |       812 |  177781   854146  2063398 |   417203      799     45 | 11.760 % |
c |      1318 |  177781   854146  2063398 |   458923     1305     47 | 11.760 % |
c |      2077 |  177781   854146  2063398 |   504815     2064     47 | 11.760 % |
c |      3216 |  177781   854146  2063398 |   555297     3203     57 | 11.760 % |
c |      4924 |  177781   854146  2063398 |   610827     4911     56 | 11.760 % |
c |      7486 |  177781   854146  2063398 |   671909     7473     54 | 11.760 % |
c |     11330 |  177781   854146  2063398 |   739100    11317     54 | 11.760 % |
c |     17096 |  177781   854146  2063398 |   813010    17083     58 | 11.760 % |
c |     25745 |  177781   854146  2063398 |   894311    25732     55 | 11.760 % |
c |     38719 |  177781   854146  2063398 |   983743    38706     55 | 11.760 % |
c |     58180 |  177703   853756  2062462 |  1082117    58020     52 | 11.799 % |
c ===============================================================================
c restarts              : 253
c conflicts             : 83283          (3298 /sec)
c decisions             : 152869         (0.00 % random) (6053 /sec)
c propagations          : 119599324      (4735936 /sec)
c conflict literals     : 4013168        (51.73 % deleted)
d RESTARTS             253
d FAILURES             83283        
d NODES                152869       
d BACKTRACKS           152869       
d PROPAGATIONS         119599324    
d NOGOODSIZE           48.19 
d MEMORY               90.00 
d TIME                 25.2536 

s UNSATISFIABLE
